(declare-fun var0 () String)
(assert (str.in.re var0 (re.++ (re.+ (re.* (re.+ (re.union (re.union (re.union (re.+ (str.to.re "7")) (re.+ (str.to.re "888"))) (re.* (re.union (str.to.re "999") (str.to.re "aaa")))) (re.union (re.+ (re.+ (str.to.re "bbb"))) (re.+ (re.union (str.to.re "cc") (str.to.re "d")))))))) (re.union (re.+ (re.+ (re.* (re.* (re.union (re.union (str.to.re "0") (str.to.re "111")) (re.+ (str.to.re "22"))))))) (re.+ (re.union (re.* (re.* (re.* (re.+ (str.to.re "33"))))) (re.union (re.* (re.union (re.* (str.to.re "444")) (re.+ (str.to.re "55")))) (re.+ (re.+ (re.+ (str.to.re "66")))))))))))
(assert (<= 15 (str.len var0)))
(check-sat)